
Gurobi 12.0.2 (win64) logging started Thu Jun  5 10:50:00 2025

Set parameter LogFile to value "C:\Ioana\_uni\honours\slp\algorithm\Main_files\results\others\prox_tubules\Task_025_Sample003_irr_gurobi.log"
Gurobi Optimizer version 12.0.2 build v12.0.2rc0 (win64 - Windows 11.0 (26100.2))

CPU model: Intel(R) Core(TM) Ultra 5 125H, instruction set [SSE2|AVX|AVX2]
Thread count: 14 physical cores, 18 logical processors, using up to 18 threads

Non-default parameters:
TimeLimit  2200

Optimize a model with 47658 rows, 34802 columns and 147849 nonzeros
Model fingerprint: 0x8a8e721f
Variable types: 17408 continuous, 17394 integer (17394 binary)
Coefficient statistics:
  Matrix range     [1e-04, 8e+04]
  Objective range  [2e-04, 3e+00]
  Bounds range     [1e+00, 1e+03]
  RHS range        [1e+00, 1e+00]
Presolve removed 31243 rows and 21841 columns
Presolve time: 0.34s
Presolved: 16415 rows, 12961 columns, 54603 nonzeros
Variable types: 6412 continuous, 6549 integer (6549 binary)
Found heuristic solution: objective 16.0321713

Root relaxation: objective 7.738956e-01, 0 iterations, 0.00 seconds (0.00 work units)

    Nodes    |    Current Node    |     Objective Bounds      |     Work
 Expl Unexpl |  Obj  Depth IntInf | Incumbent    BestBd   Gap | It/Node Time

*    0     0               0       0.7738956    0.77390  0.00%     -    0s

Explored 1 nodes (0 simplex iterations) in 0.44 seconds (0.46 work units)
Thread count was 18 (of 18 available processors)

Solution count 2: 0.773896 16.0322 

Optimal solution found (tolerance 1.00e-04)
Best objective 7.738956376786e-01, best bound 7.738956376786e-01, gap 0.0000%
